(set-logic QF_UF)
(declare-fun A0 () Bool)
(declare-fun A1 () Bool)
(declare-fun A2 () Bool)
(declare-fun A3 () Bool)
(declare-fun A4 () Bool)
(declare-fun A5 () Bool)
(declare-fun A7 () Bool)
(declare-fun A8 () Bool)
(declare-fun A9 () Bool)
(declare-fun A10 () Bool)
(declare-fun A12 () Bool)
(declare-fun A13 () Bool)
(declare-fun A14 () Bool)
(declare-fun A15 () Bool)
(declare-fun A16 () Bool)
(declare-fun A17 () Bool)
(declare-fun A18 () Bool)
(declare-fun A19 () Bool)
(declare-fun A20 () Bool)
(declare-fun A23 () Bool)
(declare-fun A24 () Bool)
(declare-fun A25 () Bool)
(declare-fun A26 () Bool)
(declare-fun A27 () Bool)
(declare-fun A28 () Bool)
(declare-fun A29 () Bool)
(assert (let ((.def_0 (not A3))) (let ((.def_1 (or .def_0 A12))) (let ((.def_2 (not A15))) (let ((.def_3 (or A2 .def_2))) (let ((.def_4 (not .def_3))) (let ((.def_5 (or .def_4 .def_1))) (let ((.def_6 (not .def_5))) (let ((.def_7 (not A9))) (let ((.def_8 (and A7 .def_7))) (let ((.def_9 (not .def_8))) (let ((.def_10 (not A28))) (let ((.def_11 (and .def_10 A14))) (let ((.def_12 (not .def_11))) (let ((.def_13 (and .def_12 .def_9))) (let ((.def_14 (and .def_13 .def_6))) (let ((.def_15 (not .def_14))) (let ((.def_16 (or A27 A5))) (let ((.def_17 (and A0 .def_7))) (let ((.def_18 (and .def_17 .def_16))) (let ((.def_19 (not .def_18))) (let ((.def_20 (not A19))) (let ((.def_21 (or A19 .def_20))) (let ((.def_22 (not .def_21))) (let ((.def_23 (or .def_10 A1))) (let ((.def_24 (not .def_23))) (let ((.def_25 (and .def_24 .def_22))) (let ((.def_26 (and .def_25 .def_19))) (let ((.def_27 (not .def_26))) (let ((.def_28 (and .def_27 .def_15))) (let ((.def_29 (not .def_28))) (let ((.def_30 (not A26))) (let ((.def_31 (not A13))) (let ((.def_32 (or .def_31 .def_30))) (let ((.def_33 (not A5))) (let ((.def_34 (and .def_33 A24))) (let ((.def_35 (not .def_34))) (let ((.def_36 (and .def_35 .def_32))) (let ((.def_37 (not A7))) (let ((.def_38 (or .def_37 .def_20))) (let ((.def_39 (not .def_38))) (let ((.def_40 (not A14))) (let ((.def_41 (or .def_33 .def_40))) (let ((.def_42 (not .def_41))) (let ((.def_43 (or .def_42 .def_39))) (let ((.def_44 (not .def_43))) (let ((.def_45 (and .def_44 .def_36))) (let ((.def_46 (not A20))) (let ((.def_47 (= .def_46 A0))) (let ((.def_48 (not .def_47))) (let ((.def_49 (not A24))) (let ((.def_50 (or .def_49 .def_20))) (let ((.def_51 (not .def_50))) (let ((.def_52 (or .def_51 .def_48))) (let ((.def_53 (or A27 A18))) (let ((.def_54 (not .def_53))) (let ((.def_55 (not A29))) (let ((.def_56 (and .def_55 A13))) (let ((.def_57 (and .def_56 .def_54))) (let ((.def_58 (and .def_57 .def_52))) (let ((.def_59 (and .def_58 .def_45))) (let ((.def_60 (not .def_59))) (let ((.def_61 (or .def_60 .def_29))) (let ((.def_62 (not A10))) (let ((.def_63 (not A0))) (let ((.def_64 (and .def_63 .def_62))) (let ((.def_65 (not A2))) (let ((.def_66 (not A27))) (let ((.def_67 (and .def_66 .def_65))) (let ((.def_68 (not .def_67))) (let ((.def_69 (or .def_68 .def_64))) (let ((.def_70 (and A17 A13))) (let ((.def_71 (not A4))) (let ((.def_72 (or .def_49 .def_71))) (let ((.def_73 (not .def_72))) (let ((.def_74 (or .def_73 .def_70))) (let ((.def_75 (and .def_74 .def_69))) (let ((.def_76 (and .def_55 A8))) (let ((.def_77 (or A29 .def_71))) (let ((.def_78 (not .def_77))) (let ((.def_79 (= .def_78 .def_76))) (let ((.def_80 (not .def_79))) (let ((.def_81 (or A4 A27))) (let ((.def_82 (or A25 .def_65))) (let ((.def_83 (or .def_82 .def_81))) (let ((.def_84 (or .def_83 .def_80))) (let ((.def_85 (and .def_84 .def_75))) (let ((.def_86 (= .def_37 .def_66))) (let ((.def_87 (= A26 A18))) (let ((.def_88 (not .def_87))) (let ((.def_89 (or .def_88 .def_86))) (let ((.def_90 (or .def_65 A9))) (let ((.def_91 (and .def_55 A29))) (let ((.def_92 (and .def_91 .def_90))) (let ((.def_93 (= .def_92 .def_89))) (let ((.def_94 (not .def_93))) (let ((.def_95 (not A23))) (let ((.def_96 (and .def_95 A15))) (let ((.def_97 (not A1))) (let ((.def_98 (and .def_97 A20))) (let ((.def_99 (or .def_98 .def_96))) (let ((.def_100 (not .def_99))) (let ((.def_101 (and .def_66 A0))) (let ((.def_102 (not A16))) (let ((.def_103 (and .def_55 .def_102))) (let ((.def_104 (and .def_103 .def_101))) (let ((.def_105 (or .def_104 .def_100))) (let ((.def_106 (not .def_105))) (let ((.def_107 (or .def_106 .def_94))) (let ((.def_108 (or .def_107 .def_85))) (let ((.def_109 (or .def_108 .def_61))) (let ((.def_110 (not .def_109))) .def_110))))))))))))))))))))))))))))))))))))))))))))))))))))))))))))))))))))))))))))))))))))))))))))))))))))))))))))))))
(check-sat)
